33D32945 STP File, STP Format Version 1.0

SECTION Comments
Name "edge_n15_d4_s28"
Problem "Euclidean Steiner Tree Problem"
Remark "Generated with STPGenerator. 4 dimensions."
END

SECTION Graph
Nodes 15
END

SECTION Coordinates
DDDD 0 0.5171551050 0.5171551050 0.5171551050 0.5171551050
DDDD 1 0.0449436945 0.0449436945 0.0449436945 0.0449436945
DDDD 2 0.4524295369 0.4524295369 0.4524295369 0.4524295369
DDDD 3 0.4422129730 0.4422129730 0.4422129730 0.4422129730
DDDD 4 0.1277577337 0.1277577337 0.1277577337 0.1277577337
DDDD 5 0.1569511728 0.1569511728 0.1569511728 0.1569511728
DDDD 6 0.0837527169 0.0837527169 0.0837527169 0.0837527169
DDDD 7 0.7310733133 0.7310733133 0.7310733133 0.7310733133
DDDD 8 0.0224596341 0.0224596341 0.0224596341 0.0224596341
DDDD 9 0.3412099454 0.3412099454 0.3412099454 0.3412099454
DDDD 10 0.2301648130 0.2301648130 0.2301648130 0.2301648130
DDDD 11 0.4956663146 0.4956663146 0.4956663146 0.4956663146
DDDD 12 0.7013661609 0.7013661609 0.7013661609 0.7013661609
DDDD 13 0.4085638460 0.4085638460 0.4085638460 0.4085638460
DDDD 14 0.7201248397 0.7201248397 0.7201248397 0.7201248397
END
